RT is False
Default write of storage_offers_DA.csv just to have a file (but constraint should be inactive)
Reading model...
...model read.
creating competitive generators file...
...competitive generators recorded.
Loading data...
.. day-ahead data with real-time VRE data read.
Compiling instance...
...instance created.
Creating Offer Mitigation (model will solve as dispatch if TRUE)...
Solving...

Welcome to IBM(R) ILOG(R) CPLEX(R) Interactive Optimizer 12.9.0.0
  with Simplex, Mixed Integer & Barrier Optimizers
5725-A06 5725-A29 5724-Y48 5724-Y49 5724-Y54 5724-Y55 5655-Y21
Copyright IBM Corp. 1988, 2019.  All Rights Reserved.

Type 'help' for a list of available commands.
Type 'help' followed by a command name for more
information on commands.

CPLEX> Logfile 'cplex.log' closed.
Logfile 'C:\Users\llavin\Desktop\test919\logs\tmpi20krgj7.cplex.log' open.
CPLEX> New value for parallel optimization mode: -1
CPLEX> New value for mixed integer optimality gap tolerance: 0.01
CPLEX> New value for integrality tolerance: 1e-09
CPLEX> New value for feasibility tolerance: 0.01
CPLEX> New value for deterministic time limit in ticks: 75000
CPLEX> Problem 'C:\Users\llavin\Desktop\test919\logs\tmp6kkzczok.pyomo.lp' read.
Read time = 0.05 sec. (3.04 ticks)
CPLEX> Problem name         : C:\Users\llavin\Desktop\test919\logs\tmp6kkzczok.pyomo.lp
Objective sense      : Minimize
Variables            :   26081  [Nneg: 1,  Box: 21616,  Free: 4464]
Objective nonzeros   :    2496
Linear constraints   :   27515  [Less: 14006,  Greater: 4416,  Equal: 9093]
  Nonzeros           :   89267
  RHS nonzeros       :   12271

Variables            : Min LB: -5000.000        Max UB: 1000000.       
Objective nonzeros   : Min   : 15.73158         Max   : 124.0997       
Linear constraints   :
  Nonzeros           : Min   : 0.8500000        Max   : 3000.000       
  RHS nonzeros       : Min   : 0.4000000        Max   : 5000.000       
CPLEX> CPXPARAM_Parallel                                -1
CPXPARAM_Simplex_Tolerances_Feasibility          0.01
CPXPARAM_DetTimeLimit                            75000
CPXPARAM_MIP_Tolerances_MIPGap                   0.01
CPXPARAM_MIP_Tolerances_Integrality              1.0000000000000001e-09
Parallel mode: opportunistic, using up to 32 threads for concurrent optimization.
Tried aggregator 1 time.
LP Presolve eliminated 21353 rows and 15463 columns.
Aggregator did 770 substitutions.
Reduced LP has 5392 rows, 9848 columns, and 31812 nonzeros.
Presolve time = 0.06 sec. (30.44 ticks)
Symmetry aggregator did 5563 additional substitutions.

Iteration log . . .
Iteration:     1   Dual objective     =             0.000000
Perturbation started.
Iteration:   101   Dual objective     =             0.000000
Iteration:   331   Dual objective     =             1.128310
Iteration:   582   Dual objective     =             1.659323
Iteration:   841   Dual objective     =             1.796451
Iteration:  1042   Dual objective     =             1.907494
Iteration:  1307   Dual objective     =             1.956814
Iteration:  1557   Dual objective     =             1.988138
Iteration:  1776   Dual objective     =         28668.026281
Iteration:  1988   Dual objective     =        195615.230627
Iteration:  2170   Dual objective     =        229902.003960
Iteration:  2360   Dual objective     =        251518.341631
Iteration:  2625   Dual objective     =        254175.405156
Iteration:  3036   Dual objective     =        258818.331995
Removing perturbation.
Dual superbasis not built.
Using devex.

Primal simplex solved model.


Primal simplex - Optimal:  Objective =  2.5881681009e+05
Solution time =    0.16 sec.  Iterations = 1625 (1006)
Deterministic time = 80.00 ticks  (512.82 ticks/sec)

CPLEX> Solution written to file 'C:\Users\llavin\Desktop\test919\logs\tmpk3wf0z2i.cplex.sol'.
CPLEX> Exporting results... 
...storage offer mitigation file created
Converting model to MPEC...
...converted
NOTE: initial MIP solve with only storage competitive to get feasible solution
Solving...

Welcome to IBM(R) ILOG(R) CPLEX(R) Interactive Optimizer 12.9.0.0
  with Simplex, Mixed Integer & Barrier Optimizers
5725-A06 5725-A29 5724-Y48 5724-Y49 5724-Y54 5724-Y55 5655-Y21
Copyright IBM Corp. 1988, 2019.  All Rights Reserved.

Type 'help' for a list of available commands.
Type 'help' followed by a command name for more
information on commands.

CPLEX> Logfile 'cplex.log' closed.
Logfile 'C:\Users\llavin\Desktop\test919\logs\tmpffb5f64c.cplex.log' open.
CPLEX> New value for parallel optimization mode: -1
CPLEX> New value for mixed integer optimality gap tolerance: 0.01
CPLEX> New value for integrality tolerance: 1e-09
CPLEX> New value for feasibility tolerance: 0.01
CPLEX> New value for deterministic time limit in ticks: 75000
CPLEX> Problem 'C:\Users\llavin\Desktop\test919\logs\tmpei1h6k4m.pyomo.lp' read.
Read time = 0.23 sec. (14.78 ticks)
CPLEX> Problem name         : C:\Users\llavin\Desktop\test919\logs\tmpei1h6k4m.pyomo.lp
Objective sense      : Maximize
Variables            :   53805  [Nneg: 1,  Box: 22000,  Free: 4464,
                                 Binary: 27340]
Objective nonzeros   :    8980
Linear constraints   :  123205  [Less: 41346,  Greater: 59096,  Equal: 22763]
  Nonzeros           :  291801
  RHS nonzeros       :   67491

Variables            : Min LB: -5000.000        Max UB: 1000000.       
Objective nonzeros   : Min   : 0.4000000        Max   : 722.0000       
Linear constraints   :
  Nonzeros           : Min   : 0.4000000        Max   : 1000000.       
  RHS nonzeros       : Min   : 0.4000000        Max   : 1000000.       
CPLEX> CPXPARAM_Parallel                                -1
CPXPARAM_Simplex_Tolerances_Feasibility          0.01
CPXPARAM_DetTimeLimit                            75000
CPXPARAM_MIP_Tolerances_MIPGap                   0.01
CPXPARAM_MIP_Tolerances_Integrality              1.0000000000000001e-09
Tried aggregator 3 times.
MIP Presolve eliminated 88622 rows and 18922 columns.
MIP Presolve added 3403 rows and 0 columns.
MIP Presolve modified 24831 coefficients.
Aggregator did 13002 substitutions.
Reduced MIP has 24984 rows, 21325 columns, and 71279 nonzeros.
Reduced MIP has 8418 binaries, 0 generals, 0 SOSs, and 0 indicators.
Presolve time = 0.30 sec. (173.66 ticks)
Probing fixed 390 vars, tightened 2801 bounds.
Probing time = 1.22 sec. (889.24 ticks)
Tried aggregator 2 times.
MIP Presolve eliminated 886 rows and 787 columns.
MIP Presolve modified 2192 coefficients.
Aggregator did 39 substitutions.
Reduced MIP has 24059 rows, 20499 columns, and 68598 nonzeros.
Reduced MIP has 8025 binaries, 0 generals, 0 SOSs, and 0 indicators.
Presolve time = 0.09 sec. (68.76 ticks)
Probing time = 0.05 sec. (16.30 ticks)
Clique table members: 6510.
MIP emphasis: balance optimality and feasibility.
MIP search method: dynamic search.
Parallel mode: opportunistic, using up to 32 threads.
Root relaxation solution time = 0.48 sec. (353.96 ticks)

        Nodes                                         Cuts/
   Node  Left     Objective  IInf  Best Integer    Best Bound    ItCnt     Gap

      0     0     6765.6526  1768                   6765.6526     8182         
      0     0     6765.0411    18                    Cuts: 24     8200         
      0     0     6764.1964    18                    Cuts: 14     8210         
      0     0     6764.1964    18                     Cuts: 7     8213         
      0    30    infeasible                           Cuts: 4     9109         
Elapsed time = 8.16 sec. (4933.96 ticks, tree = 0.03 MB, solutions = 0)
*   244    81      integral     0     5514.6384     6725.7355     9392   21.96%
    528   104        cutoff           5514.6384     6725.7355    10766   21.96%
    922   236     6364.9332    14     6256.3470     6725.7355    13815    7.50%
   1638   684     6625.6007     4     6256.3470     6725.7355    15682    7.50%
   2264   872     6500.4337     6     6256.3470     6725.7355    16576    7.50%
   2621   959     6416.4819     1     6256.3470     6725.7355    17060    7.50%
   2816  1124     6309.6496     4     6256.3470     6725.7355    18370    7.50%
   3002  1132     6635.7584    10     6256.3470     6725.7355    18410    7.50%
   3178  1187        cutoff           6360.3188     6725.7355    18694    5.75%
   3358  1167     6343.5101     2     6360.3188     6663.3000    18630    4.76%
*  3432  1241      integral     0     6360.3293     6663.3000    19056    4.76%
*  4854  1089      integral     0     6496.7565     6650.0106    21172    2.36%
   5065  1206     6482.9460     4     6496.7565     6644.2869    21669    2.27%
Elapsed time = 23.16 sec. (8040.05 ticks, tree = 8.75 MB, solutions = 23)
*  5098  1014      integral     0     6592.5897     6644.2869    20108    0.78%
   6402  1358     6530.7333    10     6592.5897     6644.2869    22657    0.78%

Cover cuts applied:  3
Implied bound cuts applied:  15
Flow cuts applied:  30
Mixed integer rounding cuts applied:  2
Gomory fractional cuts applied:  16

Root node processing (before b&c):
  Real time             =    7.06 sec. (4931.48 ticks)
Parallel b&c, 32 threads:
  Real time             =   17.61 sec. (4327.12 ticks)
  Sync time (average)   =    1.05 sec.
  Wait time (average)   =    0.00 sec.
                          ------------
Total (root+branch&cut) =   24.67 sec. (9258.60 ticks)

Solution pool: 26 solutions saved.

MIP - Integer optimal, tolerance (0.01/1e-06):  Objective =  6.5925896836e+03
Current MIP best bound =  6.6434879311e+03 (gap = 50.8982, 0.77%)
Solution time =   24.70 sec.  Iterations = 33150  Nodes = 6418 (74)
Deterministic time = 9258.75 ticks  (374.80 ticks/sec)

CPLEX> Incumbent solution written to file 'C:\Users\llavin\Desktop\test919\logs\tmp97s9a6m_.cplex.sol'.
CPLEX> NOTE: no warmstart specified for MIP iteration, default behavior is true
NOTE: resolving with all competitive generators using storage-only solution to warmstart
Solving...

Welcome to IBM(R) ILOG(R) CPLEX(R) Interactive Optimizer 12.9.0.0
  with Simplex, Mixed Integer & Barrier Optimizers
5725-A06 5725-A29 5724-Y48 5724-Y49 5724-Y54 5724-Y55 5655-Y21
Copyright IBM Corp. 1988, 2019.  All Rights Reserved.

Type 'help' for a list of available commands.
Type 'help' followed by a command name for more
information on commands.

CPLEX> Logfile 'cplex.log' closed.
Logfile 'C:\Users\llavin\Desktop\test919\logs\tmphmhvofrx.cplex.log' open.
CPLEX> New value for parallel optimization mode: -1
CPLEX> New value for mixed integer optimality gap tolerance: 0.01
CPLEX> New value for integrality tolerance: 1e-09
CPLEX> New value for feasibility tolerance: 0.01
CPLEX> New value for deterministic time limit in ticks: 75000
CPLEX> Problem 'C:\Users\llavin\Desktop\test919\logs\tmp5ww27u0m.pyomo.lp' read.
Read time = 0.23 sec. (14.81 ticks)
CPLEX> MIP start file 'C:\Users\llavin\Desktop\test919\logs\tmpz_hcvjsa.cplex.mst' read.
CPLEX> Problem name         : C:\Users\llavin\Desktop\test919\logs\tmp5ww27u0m.pyomo.lp
Objective sense      : Maximize
Variables            :   54525  [Nneg: 1,  Box: 22720,  Free: 4464,
                                 Binary: 27340]
Objective nonzeros   :    9676
Linear constraints   :  123205  [Less: 41346,  Greater: 59096,  Equal: 22763]
  Nonzeros           :  291801
  RHS nonzeros       :   67491

Variables            : Min LB: -5000.000        Max UB: 1000000.       
Objective nonzeros   : Min   : 0.4000000        Max   : 722.0000       
Linear constraints   :
  Nonzeros           : Min   : 0.4000000        Max   : 1000000.       
  RHS nonzeros       : Min   : 0.4000000        Max   : 1000000.       
CPLEX> CPXPARAM_Parallel                                -1
CPXPARAM_Simplex_Tolerances_Feasibility          0.01
CPXPARAM_DetTimeLimit                            75000
CPXPARAM_MIP_Tolerances_MIPGap                   0.01
CPXPARAM_MIP_Tolerances_Integrality              1.0000000000000001e-09
Warning:  No solution found from 1 MIP starts.
Retaining values of one MIP start for possible repair.
Tried aggregator 3 times.
MIP Presolve eliminated 88622 rows and 19642 columns.
MIP Presolve added 3403 rows and 0 columns.
MIP Presolve modified 24831 coefficients.
Aggregator did 13002 substitutions.
Reduced MIP has 24984 rows, 21325 columns, and 71279 nonzeros.
Reduced MIP has 8418 binaries, 0 generals, 0 SOSs, and 0 indicators.
Presolve time = 0.28 sec. (174.02 ticks)
Probing fixed 390 vars, tightened 2801 bounds.
Probing time = 1.27 sec. (889.24 ticks)
Tried aggregator 2 times.
MIP Presolve eliminated 886 rows and 787 columns.
MIP Presolve modified 2192 coefficients.
Aggregator did 39 substitutions.
Reduced MIP has 24059 rows, 20499 columns, and 68598 nonzeros.
Reduced MIP has 8025 binaries, 0 generals, 0 SOSs, and 0 indicators.
Presolve time = 0.11 sec. (68.76 ticks)
Probing time = 0.05 sec. (16.30 ticks)
Clique table members: 6510.
MIP emphasis: balance optimality and feasibility.
MIP search method: dynamic search.
Parallel mode: opportunistic, using up to 32 threads.
Root relaxation solution time = 0.42 sec. (313.88 ticks)

        Nodes                                         Cuts/
   Node  Left     Objective  IInf  Best Integer    Best Bound    ItCnt     Gap

      0     0    88769.3362  1851                  88769.3362     7586         
      0     0    88619.0001   628                   Cuts: 796     7981         
      0     0    88537.8511   526                   Cuts: 500     8181         
      0     0    88457.7378   457                   Cuts: 308     8320         
      0     0    88453.6329   431                   Cuts: 146     8382         
      0     0    88440.4299   403                   Cuts: 108     8423         
      0     0    88431.4806   393                    Cuts: 65     8444         
      0     0    88431.1922   385                    Cuts: 79     8462         
      0     0    88343.7064   367                    Cuts: 60     8485         
      0     0    88343.7064   360                    Cuts: 48     8493         
      0     0    88343.7064   356                    Cuts: 36     8497         
Repair heuristic found nothing.
      0    22    84933.1386   323                     Cuts: 9     8735         
Elapsed time = 11.63 sec. (6386.01 ticks, tree = 0.02 MB, solutions = 0)
    460   220    86991.5580   319                  87858.7571    11012         
   1021   650    86828.1763   300                  87858.7571    16520         
   1534   718    26898.5711   299                  87858.7571    18184         
   2294  1259    86155.2381   254                  87858.7571    25450         
   3128  1417    48564.2606   223                  87858.7571    28563         
   4102  2520    73435.6983   252                  87858.7571    35561         
   5102  3023    73440.8801   292                  87858.7571    36835         
   5970  4731    86657.8435   223                  87858.7571    40008         
   6768  4605    30829.0125   230                  87858.7571    39795         
*  8151+ 1836                        84056.2353    87858.7571             4.52%
Elapsed time = 25.81 sec. (8853.45 ticks, tree = 9.38 MB, solutions = 4)
*  9532  6584      integral     0    85055.0692    87858.7571    47399    3.30%
*  9544  6458      integral     0    86509.1932    87858.7571    47325    1.56%
   9644   545    infeasible          86509.1932    87858.7571    59190    1.56%
  10487    99    87310.7281   124    86509.1932    87787.0571    60723    1.48%
  11447    36    87468.9155   140    86509.1932    87787.0571    59866    1.48%
  12117   526    87146.0619   120    86509.1932    87787.0571    65538    1.48%
  12624  1493    87317.5776   108    86509.1932    87640.2946    81375    1.31%
  13582  1493    86838.4453   134    86509.1932    87574.0999    79668    1.23%
  14023  1581    87220.5085   137    86509.1932    87574.0999    86980    1.23%

GUB cover cuts applied:  2
Clique cuts applied:  7
Cover cuts applied:  10
Implied bound cuts applied:  225
Flow cuts applied:  385
Mixed integer rounding cuts applied:  30
Gomory fractional cuts applied:  47

Root node processing (before b&c):
  Real time             =    9.75 sec. (6348.55 ticks)
Parallel b&c, 32 threads:
  Real time             =   54.20 sec. (15959.94 ticks)
  Sync time (average)   =    6.26 sec.
  Wait time (average)   =    0.22 sec.
                          ------------
Total (root+branch&cut) =   63.95 sec. (22308.49 ticks)

Solution pool: 8 solutions saved.

MIP - Integer optimal, tolerance (0.01/1e-06):  Objective =  8.6509193240e+04
Current MIP best bound =  8.7373642044e+04 (gap = 864.449, 1.00%)
Solution time =   63.97 sec.  Iterations = 106007  Nodes = 14072 (2088)
Deterministic time = 22308.64 ticks  (348.75 ticks/sec)

CPLEX> Incumbent solution written to file 'C:\Users\llavin\Desktop\test919\logs\tmpq7l9bere.cplex.sol'.
CPLEX> Exporting results... 
